c nIsolatedPIs 8
c maxPI 24
p cnf 78 163
c gate 25 10 22 0
10 -25 0
22 -25 0
-10 -22 25 0
c gate 26 9 21 0
9 -26 0
21 -26 0
-9 -21 26 0
c gate 27 -25 -26 0
-25 -27 0
-26 -27 0
25 26 27 0
c gate 28 5 17 0
5 -28 0
17 -28 0
-5 -17 28 0
c gate 29 6 18 0
6 -29 0
18 -29 0
-6 -18 29 0
c gate 30 -28 -29 0
-28 -30 0
-29 -30 0
28 29 30 0
c gate 31 2 14 0
2 -31 0
14 -31 0
-2 -14 31 0
c gate 32 1 13 0
1 -32 0
13 -32 0
-1 -13 32 0
c gate 33 -31 -32 0
-31 -33 0
-32 -33 0
31 32 33 0
c gate 34 -2 -14 0
-2 -34 0
-14 -34 0
2 14 34 0
c gate 35 -3 -15 0
-3 -35 0
-15 -35 0
3 15 35 0
c gate 36 -34 -35 0
-34 -36 0
-35 -36 0
34 35 36 0
c gate 37 -33 36 0
-33 -37 0
36 -37 0
33 -36 37 0
c gate 38 3 15 0
3 -38 0
15 -38 0
-3 -15 38 0
c gate 39 4 16 0
4 -39 0
16 -39 0
-4 -16 39 0
c gate 40 -38 -39 0
-38 -40 0
-39 -40 0
38 39 40 0
c gate 41 -37 40 0
-37 -41 0
40 -41 0
37 -40 41 0
c gate 42 -5 -17 0
-5 -42 0
-17 -42 0
5 17 42 0
c gate 43 -4 -16 0
-4 -43 0
-16 -43 0
4 16 43 0
c gate 44 -42 -43 0
-42 -44 0
-43 -44 0
42 43 44 0
c gate 45 -41 44 0
-41 -45 0
44 -45 0
41 -44 45 0
c gate 46 30 -45 0
30 -46 0
-45 -46 0
-30 45 46 0
c gate 47 -7 -19 0
-7 -47 0
-19 -47 0
7 19 47 0
c gate 48 -6 -18 0
-6 -48 0
-18 -48 0
6 18 48 0
c gate 49 -47 -48 0
-47 -49 0
-48 -49 0
47 48 49 0
c gate 50 -46 49 0
-46 -50 0
49 -50 0
46 -49 50 0
c gate 51 8 20 0
8 -51 0
20 -51 0
-8 -20 51 0
c gate 52 7 19 0
7 -52 0
19 -52 0
-7 -19 52 0
c gate 53 -51 -52 0
-51 -53 0
-52 -53 0
51 52 53 0
c gate 54 -50 53 0
-50 -54 0
53 -54 0
50 -53 54 0
c gate 55 -9 -21 0
-9 -55 0
-21 -55 0
9 21 55 0
c gate 56 -8 -20 0
-8 -56 0
-20 -56 0
8 20 56 0
c gate 57 -55 -56 0
-55 -57 0
-56 -57 0
55 56 57 0
c gate 58 -54 57 0
-54 -58 0
57 -58 0
54 -57 58 0
c gate 59 27 -58 0
27 -59 0
-58 -59 0
-27 58 59 0
c gate 60 12 24 0
12 -60 0
24 -60 0
-12 -24 60 0
c gate 61 11 23 0
11 -61 0
23 -61 0
-11 -23 61 0
c gate 62 -60 -61 0
-60 -62 0
-61 -62 0
60 61 62 0
c gate 63 -11 -23 0
-11 -63 0
-23 -63 0
11 23 63 0
c gate 64 -12 -24 0
-12 -64 0
-24 -64 0
12 24 64 0
c gate 65 -10 -22 0
-10 -65 0
-22 -65 0
10 22 65 0
c gate 66 -64 -65 0
-64 -66 0
-65 -66 0
64 65 66 0
c gate 67 -63 66 0
-63 -67 0
66 -67 0
63 -66 67 0
c gate 68 62 67 0
62 -68 0
67 -68 0
-62 -67 68 0
c gate 69 -59 68 0
-59 -69 0
68 -69 0
59 -68 69 0
c gate 70 27 62 0
27 -70 0
62 -70 0
-27 -62 70 0
c gate 71 -64 -70 0
-64 -71 0
-70 -71 0
64 70 71 0
c gate 72 62 71 0
62 -72 0
71 -72 0
-62 -71 72 0
c gate 73 -69 72 0
-69 -73 0
72 -73 0
69 -72 73 0
c gate 74 69 -71 0
69 -74 0
-71 -74 0
-69 71 74 0
c gate 75 30 -48 0
30 -75 0
-48 -75 0
-30 48 75 0
c gate 76 45 75 0
45 -76 0
75 -76 0
-45 -75 76 0
c gate 77 -74 -76 0
-74 -77 0
-76 -77 0
74 76 77 0
c gate 78 -73 77 0
-73 -78 0
77 -78 0
73 -77 78 0
c PO
-78 0
